p td 22 42
4 1
6 2
8 4
9 6
10 9
11 1
13 4
13 11
13 8
14 3
14 7
14 4
15 6
15 3
16 5
16 10
16 2
16 6
16 11
17 14
17 1
17 12
18 2
19 6
19 10
19 9
19 1
19 12
19 18
20 7
20 4
20 10
21 13
21 4
21 17
21 11
21 9
22 21
22 7
22 20
22 12
22 18
